NAME : LC2_6_5
TYPE : PDPTW
DIMENSION : 150
EDGE_WEIGHT_TYPE : EXACT_2D
NODE_COORD_SECTION
1 1 0
2 150 0
3 0 0
4 20 1995
5 322 2
6 1891 2211
7 3 122
8 3488 90
9 165 85
10 90 244
11 198 -20
12 550 0
13 30 879
14 166 7
15 1167 1487
16 8 58
17 2006 90
18 243 35
19 90 0
20 45 20
21 0 14
22 30 1246
23 442 12
24 1095 1415
25 13 279
26 878 90
27 97 40
28 90 10
29 52 -10
30 145 0
31 -30 3068
32 0 17
33 1764 2084
34 18 64
35 869 90
36 141 231
37 90 0
38 211 40
39 0 363
40 -20 783
41 0 22
42 3110 3430
43 23 66
44 3151 90
45 83 219
46 90 0
47 210 20
48 0 465
49 20 379
50 588 27
51 1025 1345
52 28 165
53 3630 90
54 117 262
55 90 533
56 49 20
57 0 73
58 -10 565
59 0 32
60 2264 2584
61 33 182
62 2677 90
63 239 181
64 90 0
65 114 10
66 0 397
67 20 1646
68 587 37
69 81 401
70 38 142
71 1381 90
72 102 51
73 90 0
74 62 10
75 0 318
76 20 2900
77 89 42
78 1794 2114
79 43 244
80 2719 90
81 125 23
82 90 0
83 23 -20
84 378 0
85 20 240
86 584 47
87 1713 2033
88 48 262
89 1985 90
90 75 28
91 90 194
92 63 10
93 0 602
94 20 872
95 22 52
96 363 683
97 53 179
98 2853 90
99 154 257
100 90 70
101 38 10
102 0 147
103 20 385
104 72 57
105 3069 3389
106 58 28
107 477 90
108 25 150
109 90 154
110 32 -10
111 272 0
112 10 903
113 8 62
114 2166 2486
115 63 186
116 378 90
117 252 60
118 90 0
119 10 -40
120 323 0
121 -20 2730
122 0 67
123 578 898
124 68 101
125 2617 90
126 103 35
127 90 0
128 244 20
129 0 54
130 -10 1960
131 0 72
132 2670 2990
133 73 74
134 2376 90
135 222 160
136 90 542
137 163 -10
138 80 0
139 -20 2591
140 0 77
141 2489 2809
142 78 17
143 769 90
144 203 200
145 90 0
146 137 10
147 0 75
148 10 861
149 395 82
150 1217 1537
PICKUP_AND_DELIVERY_SECTION
1 0 0 0 0 0 0
2 0 0 0 0 3815 0
3 0 0 0 0 0 248
4 0 0 0 0 90 90
5 0 0 0 0 221 221
6 0 0 0 0 425 425
7 0 0 0 0 -10 -10
8 0 0 0 0 0 0
9 0 0 0 0 3020 3020
10 0 0 0 0 5 0
11 0 0 0 0 1050 1050
12 0 0 0 0 55 55
13 0 0 0 0 90 90
14 0 0 0 0 70 70
15 0 0 0 0 0 0
16 0 0 0 0 -10 -10
17 0 0 0 0 0 0
18 0 0 0 0 2378 2378
19 0 0 0 0 10 10
20 0 0 0 0 659 659
21 0 0 0 0 30 30
22 0 0 0 0 90 90
23 0 0 0 0 27 27
24 0 0 0 0 0 0
25 0 0 0 0 10 10
26 0 0 0 0 174 0
27 0 0 0 0 434 434
28 0 0 0 0 15 0
29 0 0 0 0 1889 1889
30 0 0 0 0 226 226
31 0 0 0 0 90 90
32 0 0 0 0 21 21
33 0 0 0 0 462 462
34 0 0 0 0 -20 -20
35 0 0 0 0 0 0
36 0 0 0 0 81 81
37 0 0 0 0 20 20
38 0 0 0 0 3243 3243
39 0 0 0 0 50 50
40 0 0 0 0 90 90
41 0 0 0 0 178 178
42 0 0 0 0 51 51
43 0 0 0 0 -10 -10
44 0 0 0 0 0 0
45 0 0 0 0 96 96
46 0 0 0 0 25 25
47 0 0 0 0 380 380
48 0 0 0 0 173 173
49 0 0 0 0 90 90
50 0 0 0 0 180 180
51 0 0 0 0 0 0
52 0 0 0 0 -20 -20
53 0 0 0 0 0 0
54 0 0 0 0 2209 2209
55 0 0 0 0 30 0
56 0 0 0 0 1718 1718
57 0 0 0 0 176 176
58 0 0 0 0 90 90
59 0 0 0 0 46 46
60 0 0 0 0 527 527
61 0 0 0 0 -10 -10
62 0 0 0 0 0 0
63 0 0 0 0 94 94
64 0 0 0 0 35 35
65 0 0 0 0 780 780
66 0 0 0 0 34 34
67 0 0 0 0 90 90
68 0 0 0 0 231 231
69 0 0 0 0 0 0
70 0 0 0 0 -10 -10
71 0 0 0 0 0 0
72 0 0 0 0 110 110
73 0 0 0 0 40 40
74 0 0 0 0 660 660
75 0 0 0 0 261 261
76 0 0 0 0 90 90
77 0 0 0 0 146 146
78 0 0 0 0 0 0
79 0 0 0 0 10 10
80 0 0 0 0 95 0
81 0 0 0 0 2216 2216
82 0 0 0 0 45 45
83 0 0 0 0 3598 3598
84 0 0 0 0 92 92
85 0 0 0 0 90 90
86 0 0 0 0 272 272
87 0 0 0 0 271 271
88 0 0 0 0 20 20
89 0 0 0 0 380 0
90 0 0 0 0 1293 1293
91 0 0 0 0 50 0
92 0 0 0 0 3023 3023
93 0 0 0 0 224 224
94 0 0 0 0 90 90
95 0 0 0 0 116 116
96 0 0 0 0 0 0
97 0 0 0 0 -40 -40
98 0 0 0 0 0 0
99 0 0 0 0 1372 1372
100 0 0 0 0 55 0
101 0 0 0 0 2792 2792
102 0 0 0 0 83 83
103 0 0 0 0 90 90
104 0 0 0 0 201 201
105 0 0 0 0 77 77
106 0 0 0 0 30 30
107 0 0 0 0 149 0
108 0 0 0 0 1411 1411
109 0 0 0 0 60 0
110 0 0 0 0 2370 2370
111 0 0 0 0 67 67
112 0 0 0 0 90 90
113 0 0 0 0 50 50
114 0 0 0 0 0 0
115 0 0 0 0 10 10
116 0 0 0 0 514 0
117 0 0 0 0 540 540
118 0 0 0 0 65 65
119 0 0 0 0 2206 2206
120 0 0 0 0 239 239
121 0 0 0 0 90 90
122 0 0 0 0 102 102
123 0 0 0 0 0 0
124 0 0 0 0 -10 -10
125 0 0 0 0 0 0
126 0 0 0 0 2393 2393
127 0 0 0 0 70 70
128 0 0 0 0 1109 1109
129 0 0 0 0 231 231
130 0 0 0 0 90 90
131 0 0 0 0 114 114
132 0 0 0 0 56 56
133 0 0 0 0 -20 -20
134 0 0 0 0 0 0
135 0 0 0 0 776 776
136 0 0 0 0 75 0
137 0 0 0 0 3282 3282
138 0 0 0 0 125 125
139 0 0 0 0 90 90
140 0 0 0 0 203 203
141 0 0 0 0 0 0
142 0 0 0 0 20 20
143 0 0 0 0 143 0
144 0 0 0 0 463 463
145 0 0 0 0 80 80
146 0 0 0 0 675 675
147 0 0 0 0 263 263
148 0 0 0 0 90 90
149 0 0 0 0 137 137
150 0 0 0 0 0 0
DEPOT_SECTION
1 
-1
EOF
